NAME : valedojaguaribe15
COMMENT : 
TYPE : TSP
DIMENSION : 15
EDGE_WEIGHT_TYPE : EUC_2D
LOWER_BOUND : 3.4836834719399
NODE_COORD_SECTION
1 -4.9414188 -37.976262
2 -5.5189184 -38.2707613
3 -6.0319953 -38.34942350000001
4 -5.810713499999999 -38.3040228
5 -5.609255500000002 -38.76299449999999
6 -5.460287399999999 -38.462624
7 -5.8927263 -38.6219897
8 -5.1467293 -38.0964766
9 -5.1084431 -38.371994
10 -4.7474946 -37.9618088
11 -6.043627499999999 -38.460721
12 -5.7234148 -38.1539198
13 -5.072829099999999 -37.9894863
14 -5.2695453 -38.2720868
15 -5.2442316 -38.1286594
EOF